c description: Random 24-CNF over 40 variables and 24 clauses
c generator: CNFgen (0.9.3-1)
c copyright: (C) 2012-2022 Massimo Lauria <massimo.lauria@uniroma1.it>
c url: https://massimolauria.net/cnfgen
c command line: cnfgen randkcnf 24 40 24
c
p cnf 40 24
1 -2 4 8 10 11 13 14 -16 -18 19 -20 -21 -22 -23 24 -25 -26 -29 -32 33 -36 37 -39 0
-1 3 -4 -8 -9 11 -12 14 -15 16 -17 -18 -19 20 23 26 -28 -29 32 -34 -35 36 -38 39 0
1 3 -4 5 8 -9 10 -12 14 -15 16 -20 21 23 24 -25 26 -27 -29 30 -33 37 -38 -40 0
1 -3 5 -6 -7 -11 -12 -13 15 16 17 -19 -20 21 22 -24 -25 26 -27 34 35 -36 -37 -40 0
3 4 6 10 11 -13 14 16 18 -19 -20 -21 22 -23 25 27 28 -31 32 33 -34 -35 -36 -38 0
1 4 -5 -6 7 8 9 -10 11 -12 15 16 19 -20 -23 24 -25 26 -29 31 32 33 -34 39 0
1 3 -6 7 -8 -9 -11 12 14 15 -18 20 23 24 -25 -27 -28 29 -31 -32 33 36 38 -40 0
3 4 -6 7 8 9 10 11 12 -18 19 22 23 24 25 -27 -29 -30 31 -33 -34 -35 -37 39 0
3 5 -6 -8 -9 10 -12 -16 -17 19 -20 22 -24 26 27 -28 29 -30 31 -32 -34 35 38 -40 0
3 6 7 11 -14 -15 16 -17 18 -19 -20 21 -22 -24 25 -29 30 31 32 33 34 -35 -36 -39 0
-1 -2 -4 7 -8 9 -13 14 15 18 -19 -21 -22 -23 25 -26 27 -30 31 -32 -34 35 -36 37 0
-1 3 -4 -5 6 -7 -9 -12 -15 -17 -18 -22 23 26 29 31 32 33 -34 -35 -36 37 -38 39 0
-1 -2 -5 7 9 10 12 -13 15 17 -18 -21 -22 -24 -25 -28 30 -32 33 -34 -36 37 -38 40 0
-3 4 8 -9 10 -11 -12 -13 15 -17 20 21 22 23 -26 28 -29 31 -34 35 36 37 -38 -40 0
-1 -2 -3 -5 -7 -9 -10 11 -12 13 -14 15 -18 19 20 21 26 -27 -28 -29 -30 31 -35 38 0
-1 -7 9 11 12 13 14 -15 16 17 18 -22 23 24 26 -27 29 -30 33 34 -35 37 38 40 0
-1 2 3 -4 -5 -6 -7 -8 9 10 12 -14 -15 16 20 -24 -27 -28 29 -30 -31 35 36 -37 0
-1 2 -3 -5 -9 -14 15 16 17 18 21 23 24 25 -26 -28 -29 -31 33 -34 35 -38 39 -40 0
-1 2 -4 -6 7 -8 -9 10 -12 -14 16 -19 -20 24 -25 26 27 31 -33 36 37 38 -39 -40 0
1 2 4 5 6 9 10 11 12 15 16 -18 -19 -21 24 -25 -29 30 -32 -33 -36 37 -38 -40 0
-4 5 6 -8 -10 -11 -14 -15 -19 -20 -21 -22 -24 -25 27 28 29 30 31 -33 -35 -38 39 -40 0
-2 3 4 5 -6 -7 -10 12 -13 -14 15 -18 19 23 24 -25 26 -29 32 -33 -34 35 -37 -40 0
-1 -2 3 -6 -7 9 -11 -13 -16 17 21 22 -23 -24 -25 27 29 31 -32 34 -35 36 -38 40 0
-3 -5 -6 -7 10 11 -16 17 -18 -20 21 22 -24 25 -27 -29 30 31 32 -33 -34 36 -37 40 0
